
Gurobi 11.0.1 (win64) logging started Wed Mar 20 00:57:34 2024

Set parameter LogFile to value "C:\Projetos\Job_Rotation_Algorithms\Outputs\GurobiLogs\gurobi_log-output-1_hes-c98-CostaMirallesModel-NoExtraConstraint-2.log"
Gurobi Optimizer version 11.0.1 build v11.0.1rc0 (win64 - Windows 10.0 (19045.2))

CPU model: 11th Gen Intel(R) Core(TM) i7-1165G7 @ 2.80GHz, instruction set [SSE2|AVX|AVX2|AVX512]
Thread count: 4 physical cores, 8 logical processors, using up to 1 threads

WLS license 901039 - registered to Bitka Analytics
Optimize a model with 480 rows, 943 columns and 7739 nonzeros
Model fingerprint: 0x49e02ad5
Variable types: 2 continuous, 941 integer (941 binary)
Coefficient statistics:
  Matrix range     [1e+00, 1e+02]
  Objective range  [1e+00, 1e+00]
  Bounds range     [1e+00, 2e+02]
  RHS range        [1e+00, 2e+02]
Presolve removed 152 rows and 118 columns
Presolve time: 0.05s
Presolved: 328 rows, 825 columns, 4904 nonzeros
Variable types: 0 continuous, 825 integer (824 binary)

Root relaxation: objective 5.500000e+01, 434 iterations, 0.00 seconds (0.00 work units)

    Nodes    |    Current Node    |     Objective Bounds      |     Work
 Expl Unexpl |  Obj  Depth IntInf | Incumbent    BestBd   Gap | It/Node Time

     0     0   55.00000    0   16          -   55.00000      -     -    0s
     0     0   55.00000    0  126          -   55.00000      -     -    0s
     0     0   55.00000    0  102          -   55.00000      -     -    0s
     0     0   55.00000    0   19          -   55.00000      -     -    0s
     0     0   55.00000    0   45          -   55.00000      -     -    0s
     0     0   55.00000    0   19          -   55.00000      -     -    0s
     0     0   55.00000    0   51          -   55.00000      -     -    0s
     0     0   55.00000    0   22          -   55.00000      -     -    0s
     0     0   55.00000    0   22          -   55.00000      -     -    0s
     0     2   55.00000    0   11          -   55.00000      -     -    0s
*  484   191              48      40.0000000   55.00000  37.5%  72.4    1s
H  489   184                      41.0000000   55.00000  34.1%  71.6    1s
H  541   182                      43.0000000   55.00000  27.9%  77.4    1s
H  752   195                      44.0000000   55.00000  25.0%  97.7    2s
  1236   181   54.98125    6  165   44.00000   55.00000  25.0%   130    5s
  1922   168   54.79522   11  208   44.00000   54.98959  25.0%   143   10s

Cutting planes:
  Gomory: 2
  Cover: 1199
  Implied bound: 23
  Clique: 106
  MIR: 57
  StrongCG: 13
  GUB cover: 8
  Inf proof: 2
  Zero half: 2
  RLT: 4
  BQP: 1

Explored 2387 nodes (300835 simplex iterations) in 11.81 seconds (11.46 work units)
Thread count was 1 (of 8 available processors)

Solution count 4: 44 43 41 40 

Optimal solution found (tolerance 1.00e-03)
Best objective 4.400000000000e+01, best bound 4.400000000000e+01, gap 0.0000%
